sat
(:SPACER-cex-depth                    3
 :SPACER-expand-pob-undef             5
 :SPACER-inductive-gen                9
 :SPACER-inductive-gen-weaken-fail    11
 :SPACER-inductive-gen-weaken-success 2
 :SPACER-max-depth                    3
 :SPACER-max-query-lvl                3
 :SPACER-num-active-lemmas            8
 :SPACER-num-ctp-blocked              2
 :SPACER-num-is_invariant             9
 :SPACER-num-lemmas                   12
 :SPACER-num-pobs                     8
 :SPACER-num-queries                  12
 :SPACER-num-reach-queries            3
 :SPACER-num-reuse-reach-facts        1
 :added-eqs                           2242
 :arith-assert-diseq                  590
 :arith-assert-lower                  1506
 :arith-assert-upper                  1560
 :arith-bound-prop                    290
 :arith-branch-var                    2
 :arith-conflicts                     12
 :arith-eq-adapter                    282
 :arith-fixed-eqs                     546
 :arith-gcd-conflicts                 14
 :arith-gcd-tests                     20
 :arith-ineq-splits                   2
 :arith-num-rows                      38
 :arith-offset-eqs                    72
 :arith-patches                       4
 :arith-patches_succ                  2
 :arith-pivots                        350
 :arith-row-summations                1230
 :arith-tableau-max-columns           86
 :arith-tableau-max-rows              38
 :conflicts                           120
 :decisions                           1152
 :del-clause                          784
 :final-checks                        82
 :iuc_solver.num_proxies              30
 :max-memory                          30.60
 :memory                              30.59
 :minimized-lits                      34
 :mk-bool-var                         1598
 :mk-clause                           1482
 :num-allocs                          4881518
 :num-checks                          138
 :pool_solver.checks                  69
 :pool_solver.checks.sat              23
 :pool_solver.checks.undef            10
 :propagations                        5636
 :rlimit-count                        39396
 :time                                0.05
 :time.iuc_solver.get_iuc             0.00
 :time.iuc_solver.get_iuc.hyp_reduce2 0.00
 :time.pool_solver.proof              0.00
 :time.pool_solver.smt.total          0.02
 :time.pool_solver.smt.total.sat      0.01
 :time.pool_solver.smt.total.undef    0.00
 :time.spacer.init_rules              0.00
 :time.spacer.mbp                     0.00
 :time.spacer.solve                   0.04
 :time.spacer.solve.propagate         0.00
 :time.spacer.solve.reach             0.04
 :time.spacer.solve.reach.children    0.00
 :time.spacer.solve.reach.cluster     0.00
 :time.spacer.solve.reach.gen.ind     0.00
 :time.spacer.solve.reach.is-reach    0.00)
(:max-memory   30.60
 :memory       30.59
 :num-allocs   4881518
 :rlimit-count 39396
 :time         0.05
 :total-time   0.07)
